nbNodes = 12;
nbVehi = 10;
nbServi = 5;

e = 
 [|    0,   28,   90,  298,   83,  156,  318,  449,   14,   97,   12,    0,
 |    0,  245,   35,    1,   51,  288,  256,  335,  300,   62,   77,    0,
 |    0,    4,  153,  158,  382,  174,  193,  256,   33,  141,  165,    0,
 |    0,  239,  265,  302,  277,    3,  131,  299,   24,    2,  248,    0,
 |    0,  334,  144,  203,  382,  277,  294,   36,  160,  178,  267,    0,
 |];

l = 
 [| 480,  87, 139, 329, 133, 215, 357, 492,  44, 140,  68, 480,
 | 480, 286,  88,  35,  82, 336, 295, 380, 341,  98, 136, 480,
 | 480,  60, 194, 194, 426, 205, 250, 295,  92, 177, 204, 480,
 | 480, 276, 303, 348, 310,  50, 183, 336,  73,  44, 308, 480,
 | 480, 371, 195, 243, 438, 321, 330,  88, 201, 208, 322, 480,
 |];

a = 
 [|  1,  1,  1,  1,  1,
 |  1,  1,  1,  1,  0,
 |  1,  1,  1,  0,  1,
 |  0,  1,  0,  1,  0,
 |  1,  1,  1,  1,  1,
 |  1,  1,  0,  1,  0,
 |  1,  1,  1,  1,  1,
 |  1,  1,  1,  1,  0,
 |  1,  1,  1,  1,  1,
 |  0,  0,  1,  1,  1,
 |];

p = array3d(1..nbNodes,1..nbVehi,1..nbServi,
[  0,  0,  0,  0,  0,	  0,  0,  0,  0,  0,	  0,  0,  0,  0,  0,	  0,  0,  0,  0,  0,	  0,  0,  0,  0,  0,	  0,  0,  0,  0,  0,	  0,  0,  0,  0,  0,	  0,  0,  0,  0,  0,	  0,  0,  0,  0,  0,	  0,  0,  0,  0,  0,	
 20, 14, 17, 20, 16,	 17, 14, 21, 15, 28,	 10, 26,  5, 16, 16,	 20, 24,  5, 26, 11,	 22, 26,  8, 24, 14,	 26, 16,  6, 20,  7,	 10, 11, 19, 22, 26,	  5, 10, 12, 21, 22,	 13, 28, 18, 13, 16,	  7, 28, 12,  7, 26,	
 18, 24, 23, 24, 21,	  9, 20,  9, 10, 10,	 11, 16, 18, 25, 10,	 15, 28, 17, 24, 19,	  9,  7, 20, 25, 15,	  6, 27, 15, 16,  6,	 12, 29, 28,  5, 23,	 19, 11, 15, 23, 16,	 21, 29, 29,  9, 27,	 12, 21, 25, 24, 16,	
 16, 29, 18,  6, 24,	  6, 10, 23, 16, 21,	 24, 23, 22, 24, 25,	 18, 13,  6, 28,  6,	 20, 19,  8, 21, 26,	  7, 28, 17, 27, 23,	  5, 15, 24, 21, 19,	 20, 22, 24, 15,  8,	 17, 11, 29, 11,  6,	 26, 24, 14,  5, 25,	
 18, 20, 16, 23, 11,	 12, 27, 12, 27, 26,	  7, 27, 11, 28, 18,	 25, 20, 10, 21,  5,	 16, 10, 11, 17, 17,	 14, 13, 13, 26, 13,	  8, 14,  5, 20,  9,	 14, 27,  6, 21, 24,	 27, 23, 24, 10, 21,	 12,  6, 13, 20, 24,	
 13,  8,  5, 21, 20,	 17,  6,  5, 25, 27,	 16,  6, 13, 16, 21,	 19, 27, 20, 22, 18,	 15, 21, 13,  9, 26,	  6, 18, 27, 14,  8,	 24, 24, 13, 24, 16,	 28, 13, 19,  6,  8,	 18, 19, 11, 28,  5,	 27, 17,  5, 18, 11,	
 18,  5, 27, 29, 11,	 23,  5, 26, 23, 17,	  5, 17, 11, 15, 11,	 24, 16, 19, 13, 17,	 24, 28,  6,  8, 26,	  8,  5, 15,  8, 20,	 21, 24, 20, 20, 23,	 28, 14, 25, 25,  9,	 12, 27, 23, 19, 12,	 29, 13, 23, 20, 24,	
 12, 16, 22, 15, 19,	 21, 19, 22,  8, 24,	 12, 27, 18,  5, 17,	 13, 28, 28,  9, 25,	  7, 18, 22, 25,  9,	  7, 26, 18, 25, 18,	 14, 10,  7,  8, 20,	 23, 24, 11, 15,  5,	  6, 25, 27, 21, 25,	 14,  7, 25, 15, 13,	
 21, 19, 26, 15, 17,	  6, 17, 13, 21, 15,	 29,  7, 20,  8, 10,	 10, 28,  7, 17, 14,	  7, 20, 11, 29, 13,	  8, 15, 15,  5, 25,	 23, 23, 17, 22,  9,	 29, 23, 23, 14, 16,	  8, 13, 20, 25, 18,	 25,  6, 17, 27, 20,	
 28,  6, 12, 11,  7,	 20, 14, 20,  6, 14,	 17, 26,  8, 29, 18,	 14, 28, 13,  7, 13,	 26, 13, 23, 16,  8,	 14, 12, 11, 26, 11,	 28, 26, 15, 10,  7,	 17, 26, 16,  7, 29,	 27, 20, 25,  7, 21,	 14, 18, 20, 24, 21,	
 28, 21,  6, 23,  7,	  9,  7, 16, 18,  5,	 23, 16, 26, 10, 22,	 28, 22, 20, 16, 27,	 19, 14, 19, 14, 18,	 10, 25,  7, 25, 22,	 25, 25, 13, 26, 19,	 15,  7, 23, 27, 20,	 24, 22,  7, 20, 27,	 24, 21, 21, 16,  7,	
  0,  0,  0,  0,  0,	  0,  0,  0,  0,  0,	  0,  0,  0,  0,  0,	  0,  0,  0,  0,  0,	  0,  0,  0,  0,  0,	  0,  0,  0,  0,  0,	  0,  0,  0,  0,  0,	  0,  0,  0,  0,  0,	  0,  0,  0,  0,  0,	  0,  0,  0,  0,  0,	
]);

rs = 
[|true,true,true,true,true,
 |true,false,false,false,false,
 |false,false,false,true,false,
 |false,false,true,false,false,
 |false,true,false,false,false,
 |false,false,true,false,false,
 |true,false,false,false,false,
 |false,false,false,false,true,
 |false,false,false,false,true,
 |true,false,false,false,false,
 |false,true,false,false,false,
 |true,true,true,true,true,
 |];

d=[|0, 18, 4, 12, 12, 14, 24, 11, 8, 17, 2, 0, 
|18, 0, 22, 26, 6, 32, 15, 16, 25, 35, 16, 18, 
|4, 22, 0, 11, 16, 10, 27, 14, 5, 13, 6, 4, 
|12, 26, 11, 0, 20, 12, 26, 12, 7, 13, 14, 12, 
|12, 6, 16, 20, 0, 26, 15, 10, 19, 29, 10, 12, 
|14, 32, 10, 12, 26, 0, 36, 21, 7, 3, 16, 14, 
|24, 15, 27, 26, 15, 36, 0, 14, 29, 38, 23, 24, 
|11, 16, 14, 12, 10, 21, 14, 0, 14, 24, 12, 11, 
|8, 25, 5, 7, 19, 7, 29, 14, 0, 10, 10, 8, 
|17, 35, 13, 13, 29, 3, 38, 24, 10, 0, 19, 17, 
|2, 16, 6, 14, 10, 16, 23, 12, 10, 19, 0, 2, 
|0, 18, 4, 12, 12, 14, 24, 11, 8, 17, 2, 0, 
|];

%coord=[ (0,0), (-18,3), (4,0), (5,-11), (-12,0), (14,-3), (-21,-12), (-7,-9), (7,-4), (17,-4), (-2,2), (0,0), ];

